Welcome to the CBC MILP Solver 
Version: 2.10.12 
Build Date: Aug 20 2024 

command line - /opt/homebrew/bin/cbc computational_data/real_data/lp/wine_trial_012.lp seconds 10.0 solve solu computational_data/real_data/solutions/wine_trial_012.sol (default strategy 1)
seconds was changed from 1e+100 to 10
Continuous objective value is 5.75984 - 0.00 seconds
Cgl0003I 0 fixed, 0 tightened bounds, 101 strengthened rows, 0 substitutions
Cgl0003I 0 fixed, 0 tightened bounds, 89 strengthened rows, 0 substitutions
Cgl0003I 0 fixed, 0 tightened bounds, 81 strengthened rows, 0 substitutions
Cgl0003I 0 fixed, 0 tightened bounds, 79 strengthened rows, 0 substitutions
Cgl0003I 0 fixed, 0 tightened bounds, 63 strengthened rows, 0 substitutions
Cgl0003I 0 fixed, 0 tightened bounds, 44 strengthened rows, 0 substitutions
Cgl0003I 0 fixed, 0 tightened bounds, 23 strengthened rows, 0 substitutions
Cgl0003I 0 fixed, 0 tightened bounds, 10 strengthened rows, 0 substitutions
Cgl0003I 0 fixed, 0 tightened bounds, 6 strengthened rows, 0 substitutions
Cgl0004I processed model has 85 rows, 29 columns (29 integer (29 of which binary)) and 626 elements
Cutoff increment increased from 1e-05 to 0.9999
Cbc0038I Initial state - 8 integers unsatisfied sum - 4
Cbc0038I Pass   1: suminf.    0.00000 (0) obj. 7 iterations 13
Cbc0038I Solution found of 7
Cbc0038I Before mini branch and bound, 18 integers at bound fixed and 0 continuous
Cbc0038I Full problem 85 rows 29 columns, reduced to 27 rows 10 columns
Cbc0038I Mini branch and bound did not improve solution (0.01 seconds)
Cbc0038I Round again with cutoff of 6.00009
Cbc0038I Reduced cost fixing fixed 4 variables on major pass 2
Cbc0038I Pass   2: suminf.    4.00000 (8) obj. 6 iterations 3
Cbc0038I Pass   3: suminf.    3.99964 (8) obj. 6.00009 iterations 5
Cbc0038I Pass   4: suminf.    3.99964 (8) obj. 6.00009 iterations 4
Cbc0038I Pass   5: suminf.    3.99982 (10) obj. 6.00009 iterations 9
Cbc0038I Pass   6: suminf.    3.99973 (9) obj. 6.00009 iterations 5
Cbc0038I Pass   7: suminf.    3.99973 (9) obj. 6.00009 iterations 2
Cbc0038I Pass   8: suminf.    3.99964 (8) obj. 6.00009 iterations 15
Cbc0038I Pass   9: suminf.    4.00000 (8) obj. 6 iterations 11
Cbc0038I Pass  10: suminf.    4.00000 (8) obj. 6 iterations 2
Cbc0038I Pass  11: suminf.    3.99964 (8) obj. 6.00009 iterations 3
Cbc0038I Pass  12: suminf.    3.99964 (8) obj. 6.00009 iterations 3
Cbc0038I Pass  13: suminf.    3.99982 (10) obj. 6.00009 iterations 6
Cbc0038I Pass  14: suminf.    3.99964 (8) obj. 6.00009 iterations 3
Cbc0038I Pass  15: suminf.    3.99964 (8) obj. 6.00009 iterations 0
Cbc0038I Pass  16: suminf.    3.99964 (8) obj. 6.00009 iterations 8
Cbc0038I Pass  17: suminf.    3.99964 (8) obj. 6.00009 iterations 7
Cbc0038I Pass  18: suminf.    3.99964 (8) obj. 6.00009 iterations 4
Cbc0038I Pass  19: suminf.    3.99964 (8) obj. 6.00009 iterations 3
Cbc0038I Pass  20: suminf.    4.00009 (9) obj. 6.00009 iterations 5
Cbc0038I Pass  21: suminf.    4.00000 (8) obj. 6 iterations 5
Cbc0038I Pass  22: suminf.    3.99964 (8) obj. 6.00009 iterations 3
Cbc0038I Pass  23: suminf.    3.99964 (8) obj. 6.00009 iterations 2
Cbc0038I Pass  24: suminf.    3.99982 (10) obj. 6.00009 iterations 5
Cbc0038I Pass  25: suminf.    3.99973 (9) obj. 6.00009 iterations 5
Cbc0038I Pass  26: suminf.    3.99973 (9) obj. 6.00009 iterations 1
Cbc0038I Pass  27: suminf.    3.99964 (8) obj. 6.00009 iterations 7
Cbc0038I Pass  28: suminf.    3.99982 (10) obj. 6.00009 iterations 9
Cbc0038I Pass  29: suminf.    3.99982 (10) obj. 6.00009 iterations 2
Cbc0038I Pass  30: suminf.    3.99964 (8) obj. 6.00009 iterations 6
Cbc0038I Pass  31: suminf.    3.99982 (10) obj. 6.00009 iterations 5
Cbc0038I No solution found this major pass
Cbc0038I Before mini branch and bound, 10 integers at bound fixed and 0 continuous
Cbc0038I Full problem 85 rows 29 columns, reduced to 55 rows 19 columns
Cbc0038I Mini branch and bound did not improve solution (0.01 seconds)
Cbc0038I After 0.01 seconds - Feasibility pump exiting with objective of 7 - took 0.01 seconds
Cbc0012I Integer solution of 7 found by feasibility pump after 0 iterations and 0 nodes (0.01 seconds)
Cbc0038I Full problem 85 rows 29 columns, reduced to 27 rows 10 columns
Cbc0031I 2 added rows had average density of 11
Cbc0013I At root node, 7 cuts changed objective from 6 to 7 in 1 passes
Cbc0014I Cut generator 0 (Probing) - 0 row cuts average 0.0 elements, 0 column cuts (0 active)  in 0.000 seconds - new frequency is -100
Cbc0014I Cut generator 1 (Gomory) - 2 row cuts average 11.0 elements, 0 column cuts (0 active)  in 0.000 seconds - new frequency is 1
Cbc0014I Cut generator 2 (Knapsack) - 0 row cuts average 0.0 elements, 0 column cuts (0 active)  in 0.000 seconds - new frequency is -100
Cbc0014I Cut generator 3 (Clique) - 0 row cuts average 0.0 elements, 0 column cuts (0 active)  in 0.000 seconds - new frequency is -100
Cbc0014I Cut generator 4 (MixedIntegerRounding2) - 0 row cuts average 0.0 elements, 0 column cuts (0 active)  in 0.000 seconds - new frequency is -100
Cbc0014I Cut generator 5 (FlowCover) - 0 row cuts average 0.0 elements, 0 column cuts (0 active)  in 0.000 seconds - new frequency is -100
Cbc0014I Cut generator 6 (TwoMirCuts) - 2 row cuts average 11.0 elements, 0 column cuts (0 active)  in 0.000 seconds - new frequency is -100
Cbc0014I Cut generator 7 (ZeroHalf) - 3 row cuts average 19.0 elements, 0 column cuts (0 active)  in 0.000 seconds - new frequency is 1
Cbc0001I Search completed - best objective 7, took 0 iterations and 0 nodes (0.01 seconds)
Cbc0035I Maximum depth 0, 4 variables fixed on reduced cost
Cuts at root node changed objective from 6 to 7
Probing was tried 1 times and created 0 cuts of which 0 were active after adding rounds of cuts (0.000 seconds)
Gomory was tried 1 times and created 2 cuts of which 0 were active after adding rounds of cuts (0.000 seconds)
Knapsack was tried 1 times and created 0 cuts of which 0 were active after adding rounds of cuts (0.000 seconds)
Clique was tried 1 times and created 0 cuts of which 0 were active after adding rounds of cuts (0.000 seconds)
MixedIntegerRounding2 was tried 1 times and created 0 cuts of which 0 were active after adding rounds of cuts (0.000 seconds)
FlowCover was tried 1 times and created 0 cuts of which 0 were active after adding rounds of cuts (0.000 seconds)
TwoMirCuts was tried 1 times and created 2 cuts of which 0 were active after adding rounds of cuts (0.000 seconds)
ZeroHalf was tried 1 times and created 3 cuts of which 0 were active after adding rounds of cuts (0.000 seconds)

Result - Optimal solution found

Objective value:                7.00000000
Enumerated nodes:               0
Total iterations:               0
Time (CPU seconds):             0.01
Time (Wallclock seconds):       0.02

Total time (CPU seconds):       0.01   (Wallclock seconds):       0.02

